c "41090.clq"
p edge 100 1344
e 1 17
e 1 18
e 1 19
e 1 20
e 1 21
e 1 24
e 1 25
e 1 26
e 1 27
e 1 31
e 1 32
e 1 33
e 1 38
e 1 42
e 1 45
e 1 49
e 1 56
e 1 62
e 1 66
e 1 70
e 1 72
e 1 79
e 1 84
e 1 92
e 1 95
e 1 96
e 2 17
e 2 18
e 2 20
e 2 21
e 2 23
e 2 24
e 2 30
e 2 33
e 2 45
e 2 67
e 2 71
e 2 73
e 3 17
e 3 18
e 3 19
e 3 21
e 3 22
e 3 24
e 3 25
e 3 26
e 3 27
e 3 28
e 3 37
e 3 40
e 3 45
e 3 76
e 3 93
e 3 98
e 4 17
e 4 18
e 4 19
e 4 20
e 4 21
e 4 22
e 4 24
e 4 26
e 4 27
e 4 28
e 4 29
e 4 33
e 4 34
e 4 35
e 4 36
e 4 38
e 4 39
e 4 45
e 4 47
e 4 50
e 4 51
e 4 56
e 4 57
e 4 64
e 4 79
e 4 81
e 4 86
e 4 87
e 4 88
e 4 93
e 5 17
e 5 18
e 5 19
e 5 20
e 5 21
e 5 22
e 5 23
e 5 25
e 5 26
e 5 27
e 5 29
e 5 30
e 5 31
e 5 32
e 5 33
e 5 34
e 5 39
e 5 40
e 5 42
e 5 47
e 5 49
e 5 54
e 5 63
e 5 65
e 5 70
e 5 80
e 5 81
e 5 87
e 5 91
e 5 92
e 5 97
e 6 17
e 6 18
e 6 19
e 6 20
e 6 22
e 6 23
e 6 24
e 6 28
e 6 29
e 6 31
e 6 36
e 6 38
e 6 46
e 6 76
e 6 80
e 6 84
e 6 88
e 6 97
e 7 17
e 7 18
e 7 19
e 7 22
e 7 24
e 7 25
e 7 27
e 7 30
e 7 37
e 7 42
e 7 44
e 7 47
e 7 59
e 7 66
e 7 69
e 7 87
e 7 88
e 7 94
e 7 98
e 8 17
e 8 18
e 8 19
e 8 20
e 8 21
e 8 22
e 8 23
e 8 25
e 8 27
e 8 29
e 8 33
e 8 36
e 8 40
e 8 42
e 8 50
e 8 54
e 8 57
e 8 59
e 8 60
e 8 68
e 8 75
e 8 78
e 8 87
e 8 96
e 9 17
e 9 18
e 9 19
e 9 21
e 9 22
e 9 24
e 9 28
e 9 48
e 9 49
e 9 74
e 10 17
e 10 18
e 10 19
e 10 20
e 10 21
e 10 22
e 10 23
e 10 24
e 10 25
e 10 29
e 10 30
e 10 32
e 10 36
e 10 41
e 11 17
e 11 18
e 11 19
e 11 20
e 11 22
e 11 23
e 11 24
e 11 25
e 11 26
e 11 28
e 11 29
e 11 33
e 11 36
e 11 37
e 11 39
e 11 41
e 11 49
e 11 56
e 11 62
e 11 65
e 11 76
e 11 80
e 11 82
e 11 86
e 11 88
e 11 92
e 12 17
e 12 18
e 12 19
e 12 20
e 12 21
e 12 27
e 12 32
e 12 35
e 12 36
e 12 38
e 12 39
e 12 43
e 12 45
e 12 50
e 12 58
e 12 59
e 12 61
e 12 64
e 12 65
e 12 67
e 12 70
e 12 72
e 12 74
e 12 77
e 12 81
e 12 84
e 12 85
e 12 94
e 12 95
e 13 17
e 13 19
e 13 20
e 13 21
e 13 23
e 13 26
e 13 27
e 13 28
e 13 29
e 13 34
e 13 38
e 13 40
e 13 43
e 13 51
e 13 56
e 13 64
e 13 66
e 13 67
e 13 75
e 13 84
e 13 85
e 13 95
e 14 17
e 14 18
e 14 19
e 14 20
e 14 22
e 14 23
e 14 24
e 14 25
e 14 26
e 14 28
e 14 30
e 14 31
e 14 33
e 14 34
e 14 38
e 14 43
e 14 62
e 14 63
e 14 65
e 14 68
e 14 71
e 14 97
e 15 17
e 15 18
e 15 19
e 15 20
e 15 21
e 15 23
e 15 25
e 15 27
e 15 34
e 15 40
e 15 42
e 15 55
e 15 72
e 15 78
e 15 80
e 15 81
e 16 17
e 16 18
e 16 20
e 16 21
e 16 22
e 16 23
e 16 25
e 16 26
e 16 30
e 16 37
e 16 39
e 16 41
e 16 43
e 16 45
e 16 48
e 16 50
e 16 51
e 16 58
e 16 61
e 16 63
e 16 66
e 16 84
e 16 88
e 16 91
e 17 18
e 17 19
e 17 20
e 17 21
e 17 22
e 17 23
e 17 24
e 17 25
e 17 26
e 17 27
e 17 28
e 17 29
e 17 30
e 17 31
e 17 32
e 17 33
e 17 34
e 17 35
e 17 36
e 17 37
e 17 39
e 17 40
e 17 42
e 17 43
e 17 44
e 17 45
e 17 46
e 17 47
e 17 48
e 17 51
e 17 52
e 17 53
e 17 54
e 17 55
e 17 56
e 17 57
e 17 58
e 17 60
e 17 61
e 17 63
e 17 64
e 17 65
e 17 67
e 17 68
e 17 72
e 17 73
e 17 77
e 17 78
e 17 83
e 17 86
e 17 88
e 17 90
e 17 91
e 17 92
e 17 94
e 17 95
e 17 96
e 17 97
e 17 99
e 18 19
e 18 20
e 18 21
e 18 22
e 18 23
e 18 24
e 18 25
e 18 26
e 18 27
e 18 29
e 18 32
e 18 33
e 18 35
e 18 36
e 18 37
e 18 38
e 18 42
e 18 43
e 18 45
e 18 49
e 18 50
e 18 51
e 18 52
e 18 53
e 18 54
e 18 56
e 18 57
e 18 58
e 18 59
e 18 61
e 18 62
e 18 64
e 18 67
e 18 68
e 18 69
e 18 70
e 18 73
e 18 77
e 18 78
e 18 79
e 18 82
e 18 83
e 18 84
e 18 85
e 18 87
e 18 90
e 18 94
e 18 95
e 18 96
e 18 97
e 19 20
e 19 21
e 19 22
e 19 23
e 19 26
e 19 27
e 19 28
e 19 30
e 19 31
e 19 32
e 19 33
e 19 34
e 19 35
e 19 36
e 19 38
e 19 39
e 19 41
e 19 44
e 19 46
e 19 48
e 19 53
e 19 54
e 19 56
e 19 58
e 19 59
e 19 60
e 19 63
e 19 70
e 19 71
e 19 73
e 19 74
e 19 86
e 19 88
e 19 89
e 19 91
e 19 95
e 19 99
e 20 21
e 20 22
e 20 23
e 20 24
e 20 25
e 20 26
e 20 27
e 20 28
e 20 29
e 20 30
e 20 31
e 20 32
e 20 33
e 20 34
e 20 35
e 20 36
e 20 40
e 20 41
e 20 43
e 20 44
e 20 46
e 20 47
e 20 50
e 20 51
e 20 52
e 20 53
e 20 55
e 20 69
e 20 70
e 20 71
e 20 72
e 20 77
e 20 78
e 20 79
e 20 80
e 20 82
e 20 89
e 20 95
e 20 96
e 20 98
e 20 100
e 21 22
e 21 23
e 21 24
e 21 25
e 21 26
e 21 27
e 21 28
e 21 29
e 21 30
e 21 31
e 21 32
e 21 34
e 21 35
e 21 37
e 21 38
e 21 39
e 21 40
e 21 43
e 21 44
e 21 45
e 21 46
e 21 47
e 21 49
e 21 52
e 21 55
e 21 57
e 21 61
e 21 62
e 21 63
e 21 64
e 21 67
e 21 68
e 21 70
e 21 73
e 21 74
e 21 75
e 21 76
e 21 77
e 21 85
e 21 88
e 21 89
e 21 90
e 21 91
e 21 92
e 21 94
e 21 97
e 21 99
e 22 23
e 22 24
e 22 28
e 22 29
e 22 30
e 22 31
e 22 32
e 22 33
e 22 35
e 22 39
e 22 40
e 22 41
e 22 42
e 22 43
e 22 44
e 22 46
e 22 47
e 22 50
e 22 52
e 22 62
e 22 66
e 22 67
e 22 69
e 22 72
e 22 73
e 22 75
e 22 78
e 22 83
e 22 86
e 22 89
e 22 90
e 22 97
e 22 98
e 22 100
e 23 24
e 23 25
e 23 26
e 23 28
e 23 29
e 23 30
e 23 31
e 23 32
e 23 33
e 23 34
e 23 35
e 23 37
e 23 40
e 23 41
e 23 42
e 23 44
e 23 45
e 23 47
e 23 48
e 23 50
e 23 53
e 23 54
e 23 55
e 23 59
e 23 64
e 23 67
e 23 68
e 23 70
e 23 72
e 23 73
e 23 75
e 23 77
e 23 79
e 23 81
e 23 82
e 23 83
e 23 85
e 23 88
e 23 95
e 23 96
e 23 97
e 23 100
e 24 25
e 24 26
e 24 27
e 24 28
e 24 30
e 24 31
e 24 32
e 24 34
e 24 37
e 24 40
e 24 42
e 24 43
e 24 46
e 24 47
e 24 48
e 24 50
e 24 51
e 24 55
e 24 59
e 24 60
e 24 61
e 24 69
e 24 74
e 24 78
e 24 80
e 24 81
e 24 82
e 24 87
e 24 89
e 24 94
e 25 26
e 25 27
e 25 29
e 25 30
e 25 31
e 25 33
e 25 35
e 25 36
e 25 37
e 25 38
e 25 40
e 25 41
e 25 42
e 25 43
e 25 45
e 25 46
e 25 47
e 25 48
e 25 50
e 25 51
e 25 52
e 25 53
e 25 60
e 25 62
e 25 63
e 25 64
e 25 65
e 25 68
e 25 69
e 25 72
e 25 74
e 25 75
e 25 76
e 25 78
e 25 80
e 25 85
e 25 86
e 25 87
e 25 92
e 25 94
e 25 95
e 25 96
e 25 99
e 25 100
e 26 28
e 26 31
e 26 32
e 26 35
e 26 36
e 26 37
e 26 41
e 26 44
e 26 48
e 26 49
e 26 50
e 26 53
e 26 55
e 26 57
e 26 59
e 26 61
e 26 62
e 26 63
e 26 65
e 26 66
e 26 69
e 26 76
e 26 77
e 26 79
e 26 80
e 26 81
e 26 82
e 26 91
e 26 95
e 26 96
e 26 98
e 27 28
e 27 29
e 27 30
e 27 31
e 27 32
e 27 34
e 27 38
e 27 39
e 27 40
e 27 42
e 27 46
e 27 48
e 27 50
e 27 52
e 27 53
e 27 54
e 27 55
e 27 57
e 27 58
e 27 60
e 27 63
e 27 67
e 27 68
e 27 76
e 27 82
e 27 97
e 28 29
e 28 31
e 28 34
e 28 35
e 28 36
e 28 37
e 28 41
e 28 44
e 28 52
e 28 53
e 28 55
e 28 56
e 28 58
e 28 59
e 28 63
e 28 69
e 28 71
e 28 72
e 28 75
e 28 76
e 28 80
e 28 84
e 28 90
e 28 93
e 28 95
e 28 98
e 29 30
e 29 32
e 29 35
e 29 36
e 29 37
e 29 40
e 29 41
e 29 46
e 29 48
e 29 49
e 29 51
e 29 54
e 29 57
e 29 61
e 29 64
e 29 66
e 29 67
e 29 71
e 29 72
e 29 82
e 29 84
e 29 85
e 29 90
e 29 92
e 29 93
e 29 99
e 30 31
e 30 32
e 30 33
e 30 34
e 30 35
e 30 36
e 30 38
e 30 40
e 30 41
e 30 42
e 30 43
e 30 49
e 30 50
e 30 53
e 30 55
e 30 61
e 30 65
e 30 69
e 30 70
e 30 71
e 30 75
e 30 76
e 30 85
e 30 86
e 30 89
e 30 90
e 30 98
e 31 33
e 31 34
e 31 35
e 31 39
e 31 43
e 31 48
e 31 49
e 31 51
e 31 52
e 31 53
e 31 54
e 31 58
e 31 60
e 31 61
e 31 62
e 31 63
e 31 68
e 31 69
e 31 74
e 31 78
e 31 79
e 31 83
e 31 84
e 31 85
e 31 90
e 31 92
e 31 93
e 31 100
e 32 34
e 32 35
e 32 38
e 32 39
e 32 41
e 32 42
e 32 43
e 32 44
e 32 46
e 32 47
e 32 48
e 32 57
e 32 60
e 32 61
e 32 62
e 32 70
e 32 73
e 32 74
e 32 79
e 32 81
e 32 87
e 32 96
e 32 98
e 33 36
e 33 37
e 33 38
e 33 39
e 33 44
e 33 46
e 33 47
e 33 51
e 33 55
e 33 57
e 33 58
e 33 61
e 33 64
e 33 67
e 33 71
e 33 81
e 33 82
e 33 85
e 34 37
e 34 38
e 34 39
e 34 45
e 34 55
e 34 56
e 34 57
e 34 58
e 34 59
e 34 63
e 34 64
e 34 68
e 34 79
e 34 100
e 35 39
e 35 41
e 35 42
e 35 44
e 35 46
e 35 48
e 35 49
e 35 51
e 35 52
e 35 56
e 35 58
e 35 59
e 35 61
e 35 62
e 35 64
e 35 65
e 35 69
e 35 75
e 35 78
e 35 79
e 35 81
e 35 83
e 35 86
e 35 87
e 35 90
e 35 93
e 36 37
e 36 38
e 36 40
e 36 41
e 36 42
e 36 48
e 36 52
e 36 53
e 36 54
e 36 59
e 36 60
e 36 67
e 36 71
e 36 72
e 36 80
e 37 41
e 37 44
e 37 45
e 37 46
e 37 49
e 37 50
e 37 51
e 37 53
e 37 54
e 37 62
e 37 65
e 37 73
e 37 74
e 37 75
e 37 78
e 37 86
e 37 88
e 37 92
e 38 39
e 38 43
e 38 44
e 38 54
e 38 60
e 38 62
e 38 77
e 38 78
e 38 84
e 38 86
e 38 97
e 39 46
e 39 47
e 39 49
e 39 63
e 39 65
e 39 71
e 39 74
e 39 79
e 39 85
e 39 89
e 39 91
e 39 97
e 39 99
e 40 43
e 40 45
e 40 52
e 40 56
e 40 58
e 40 59
e 40 62
e 40 70
e 40 71
e 40 77
e 40 79
e 40 88
e 40 99
e 40 100
e 41 44
e 41 62
e 41 64
e 41 65
e 41 67
e 41 72
e 41 74
e 41 81
e 41 87
e 41 89
e 41 91
e 41 93
e 41 99
e 42 44
e 42 45
e 42 47
e 42 50
e 42 54
e 42 55
e 42 56
e 42 57
e 42 58
e 42 63
e 42 66
e 42 71
e 42 82
e 42 83
e 42 89
e 42 94
e 42 97
e 43 45
e 43 47
e 43 49
e 43 52
e 43 56
e 43 61
e 43 76
e 43 77
e 43 83
e 43 85
e 43 96
e 43 98
e 44 47
e 44 50
e 44 51
e 44 55
e 44 56
e 44 58
e 44 59
e 44 60
e 44 66
e 44 75
e 44 76
e 44 79
e 44 82
e 44 86
e 44 87
e 44 92
e 44 93
e 44 99
e 45 46
e 45 55
e 45 57
e 45 59
e 45 60
e 45 63
e 45 66
e 45 69
e 45 71
e 45 72
e 45 80
e 45 83
e 45 84
e 45 88
e 45 91
e 46 48
e 46 49
e 46 52
e 46 57
e 46 58
e 46 60
e 46 70
e 46 74
e 46 75
e 46 83
e 46 84
e 46 85
e 46 86
e 46 91
e 46 92
e 46 96
e 47 48
e 47 49
e 47 53
e 47 56
e 47 57
e 47 59
e 47 64
e 47 68
e 47 72
e 47 73
e 47 76
e 47 81
e 47 88
e 47 98
e 48 51
e 48 52
e 48 53
e 48 56
e 48 61
e 48 66
e 48 72
e 48 89
e 48 91
e 48 98
e 49 51
e 49 54
e 49 57
e 49 64
e 49 65
e 49 69
e 49 71
e 49 74
e 49 75
e 49 78
e 49 84
e 49 98
e 50 52
e 50 55
e 50 83
e 50 84
e 50 86
e 50 93
e 50 94
e 50 99
e 51 62
e 51 65
e 51 73
e 51 75
e 51 79
e 51 80
e 51 85
e 51 88
e 51 95
e 51 97
e 52 53
e 52 54
e 52 66
e 52 67
e 52 68
e 52 76
e 52 77
e 52 82
e 52 83
e 52 90
e 52 91
e 52 95
e 53 54
e 53 66
e 53 70
e 53 75
e 53 99
e 54 70
e 54 73
e 54 92
e 54 100
e 55 58
e 55 64
e 55 85
e 55 93
e 56 60
e 56 73
e 56 82
e 56 87
e 57 68
e 57 81
e 57 91
e 57 93
e 58 60
e 58 69
e 58 80
e 58 81
e 58 83
e 58 93
e 58 98
e 59 60
e 59 61
e 59 65
e 59 97
e 60 68
e 60 70
e 60 74
e 60 78
e 61 86
e 61 100
e 62 63
e 62 66
e 62 67
e 62 68
e 62 89
e 63 65
e 63 66
e 63 68
e 63 70
e 63 84
e 63 88
e 63 99
e 64 76
e 64 77
e 64 78
e 64 79
e 64 80
e 64 89
e 64 90
e 65 66
e 65 67
e 65 73
e 65 76
e 65 77
e 65 89
e 65 94
e 65 98
e 66 69
e 66 71
e 66 74
e 66 75
e 66 84
e 66 99
e 67 73
e 67 87
e 67 93
e 68 69
e 68 72
e 68 86
e 68 87
e 69 71
e 69 80
e 70 76
e 70 80
e 70 83
e 70 86
e 70 90
e 70 91
e 70 92
e 70 93
e 70 100
e 71 73
e 71 77
e 71 93
e 71 94
e 72 77
e 72 83
e 72 91
e 72 94
e 72 96
e 72 100
e 73 74
e 73 100
e 74 78
e 74 99
e 75 77
e 75 90
e 76 82
e 76 89
e 77 79
e 77 81
e 77 99
e 77 100
e 78 81
e 78 83
e 79 82
e 79 90
e 79 100
e 80 82
e 80 85
e 80 87
e 80 89
e 80 90
e 80 96
e 81 93
e 82 87
e 83 88
e 83 92
e 83 94
e 83 96
e 84 89
e 84 92
e 85 97
e 86 92
e 86 95
e 86 98
e 86 100
e 87 91
e 87 94
e 87 98
e 89 90
e 89 97
e 91 96
e 92 94
e 93 94
e 93 95
e 94 95
e 95 96
e 95 99
e 98 100
